61
Ce(Im)2 + coronene (MWCNT proxy)
Ce      0.000000      0.000000      3.500000
C       0.185325      3.937483      5.727718
C       1.253407      3.034388      5.241019
N       1.095673      1.897762      4.595673
C       2.360182      1.426531      4.357158
C       3.302787      2.287407      4.863912
N       2.586288      3.307596      5.424414
H      -0.801800      3.535714      5.479248
H       0.276907      4.925871      5.266993
H       0.243097      4.051884      6.814521
H       2.522617      0.493370      3.833708
H       4.382686      2.263484      4.873980
H       2.962930      4.120556      5.891755
C       0.990444     -2.773018      6.939511
C       1.445627     -2.756375      5.530332
N       1.095673     -1.897762      4.595673
C       1.767684     -2.283476      3.465383
C       2.538477     -3.392849      3.713540
N       2.325376     -3.684959      5.031712
H       0.294519     -1.950079      7.129329
H       1.840401     -2.664549      7.620225
H       0.477744     -3.712507      7.167692
H       1.659740     -1.741372      2.534982
H       3.196644     -3.978888      3.088856
H       2.737770     -4.446212      5.552864
C       3.007337     -2.185494      0.000000
C       3.602535     -0.923255      0.000000
C       2.817427      0.235727      0.000000
C       3.398996      1.509058      0.000000
C       2.602306      2.654839      0.000000
C       1.204776      2.555004      0.000000
C       0.391668      3.694551      0.000000
C      -1.000215      3.578095      0.000000
C      -1.612641      2.319274      0.000000
C      -3.007330      2.185484      0.000000
C      -3.602523      0.923245      0.000000
C      -2.817422     -0.235732      0.000000
C      -3.399005     -1.509059      0.000000
C      -2.602318     -2.654842      0.000000
C      -1.204784     -2.554999      0.000000
C      -0.391667     -3.694543      0.000000
C       1.000216     -3.578086      0.000000
C       1.612644     -2.319269      0.000000
C       0.806736     -1.160229      0.000000
C       1.409436      0.117927      0.000000
C       0.602698      1.278160      0.000000
C      -0.806736      1.160235      0.000000
C      -1.409434     -0.117923      0.000000
C      -0.602700     -1.278154      0.000000
H       3.645469     -3.065279      0.000000
H       4.688103     -0.854166      0.000000
H       4.480946      1.621349      0.000000
H       3.085377      3.628418      0.000000
H       0.835496      4.686589      0.000000
H      -1.602733      4.482589      0.000000
H      -3.645481      3.065251      0.000000
H      -4.688090      0.854164      0.000000
H      -4.480962     -1.621312      0.000000
H      -3.085373     -3.628432      0.000000
H      -0.835470     -4.686591      0.000000
H       1.602717     -4.482591      0.000000
