61
Co(Im)2-Im-Ce(Im)2 bimetallic ZIF cluster
Co     -3.000000      0.000000      0.000000
Ce      3.000000      0.000000      0.000000
C       0.729107      1.850929     -0.159329
C       0.289575      0.441902     -0.038040
N      -0.950000      0.000000      0.000000
C      -0.856176     -1.362123      0.117252
C       0.458829     -1.757114      0.151252
N       1.179300     -0.599826      0.051632
H      -0.134677      2.520351     -0.216971
H       1.329624      1.990708     -1.063435
H       1.329591      2.143168      0.707609
H      -1.740450     -1.983711      0.170760
H       0.927747     -2.726653      0.234711
C      -6.462926      2.306680      0.211962
C      -5.026393      2.628535      0.050604
N      -4.025000      1.775352      0.000000
C      -2.895649      2.535722     -0.155986
C      -3.212055      3.871482     -0.201220
N      -4.571669      3.918436     -0.068691
H      -6.609118      1.224865      0.288605
H      -7.037536      2.668346     -0.646284
H      -6.861884      2.769721      1.119703
H      -1.916738      2.079825     -0.227167
H      -2.609267      4.760961     -0.312248
H      -5.146227      4.749680     -0.059276
C      -3.407803     -4.070556      0.788561
C      -4.296993     -3.049655      0.188265
N      -4.025000     -1.775352      0.000000
C      -5.143954     -1.237663     -0.580312
C      -6.112329     -2.197008     -0.748594
N      -5.561735     -3.346821     -0.255548
H      -2.449044     -3.626685      1.073743
H      -3.211342     -4.877401      0.075840
H      -3.864759     -4.500112      1.685355
H      -5.191030     -0.189412     -0.845130
H      -7.109851     -2.162548     -1.161651
H      -6.000624     -4.256394     -0.220528
C       3.456808      4.504143      0.069739
C       4.460944      3.416878      0.016649
N       4.225000      2.121762      0.000000
C       5.455073      1.519918     -0.051322
C       6.455671      2.460660     -0.066205
N       5.810668      3.664980     -0.022601
H       2.443444      4.091798      0.094943
H       3.540547      5.149214     -0.810283
H       3.598313      5.115825      0.966058
H       5.552857      0.442391     -0.074741
H       7.532286      2.380535     -0.102735
H       6.242851      4.578424     -0.019502
C       6.130633     -2.960410     -1.391385
C       5.099309     -3.048317     -0.332189
N       4.225000     -2.121762      0.000000
C       3.487370     -2.655972      1.023939
C       3.917368     -3.926149      1.320862
N       4.944167     -4.165254      0.450902
H       6.084298     -1.989750     -1.894619
H       5.978826     -3.741473     -2.142692
H       7.131784     -3.075775     -0.964823
H       2.687217     -2.096869      1.491201
H       3.593401     -4.654651      2.049687
H       5.495089     -5.010145      0.389116
