61
Cu(L)2-L-Co(L)2 ZIF cluster; terminals 2-methylimidazolate — ZIF-8, shipped cathode stack; bridge 2-methylimidazolate — ZIF-8, shipped cathode stack
Cu     -3.000000      0.000000      0.000000
Co      3.000000      0.000000      0.000000
C       0.086149      0.317662      2.243465
C       0.034564      0.347411      0.763699
N      -0.980000      0.000000      0.000000
C      -0.559800      0.196721     -1.289442
C       0.729053      0.670756     -1.313146
N       1.097170      0.762718      0.000000
H      -0.861342     -0.043763      2.654807
H       0.270978      1.319653      2.642738
H       0.883369     -0.348221      2.587859
H      -1.208175     -0.013701     -2.129983
H       1.392561      0.940989     -2.121593
C      -6.447926      2.280699      0.211962
C      -5.011393      2.602555      0.050604
N      -4.010000      1.749371      0.000000
C      -2.880649      2.509742     -0.155986
C      -3.197055      3.845501     -0.201220
N      -4.556669      3.892455     -0.068691
H      -6.594118      1.198884      0.288605
H      -7.022536      2.642365     -0.646284
H      -6.846884      2.743740      1.119703
H      -1.901738      2.053844     -0.227167
H      -2.594267      4.734980     -0.312248
H      -5.131227      4.723699     -0.059276
C      -3.392803     -4.044575      0.788561
C      -4.281993     -3.023674      0.188265
N      -4.010000     -1.749371      0.000000
C      -5.128954     -1.211682     -0.580312
C      -6.097329     -2.171027     -0.748594
N      -5.546735     -3.320841     -0.255548
H      -2.434044     -3.600704      1.073743
H      -3.196342     -4.851420      0.075840
H      -3.849759     -4.474131      1.685355
H      -5.176030     -0.163431     -0.845130
H      -7.094851     -2.136567     -1.161651
H      -5.985624     -4.230413     -0.220528
C       3.256808      4.157733      0.069739
C       4.260944      3.070468      0.016649
N       4.025000      1.775352      0.000000
C       5.255073      1.173508     -0.051322
C       6.255671      2.114249     -0.066205
N       5.610668      3.318570     -0.022601
H       2.243444      3.745388      0.094943
H       3.340547      4.802804     -0.810283
H       3.398313      4.769415      0.966058
H       5.352857      0.095981     -0.074741
H       7.332286      2.034125     -0.102735
H       6.042851      4.232014     -0.019502
C       5.930633     -2.614000     -1.391385
C       4.899309     -2.701907     -0.332189
N       4.025000     -1.775352      0.000000
C       3.287370     -2.309562      1.023939
C       3.717368     -3.579739      1.320862
N       4.744167     -3.818844      0.450902
H       5.884298     -1.643340     -1.894619
H       5.778826     -3.395063     -2.142692
H       6.931784     -2.729364     -0.964823
H       2.487217     -1.750459      1.491201
H       3.393401     -4.308241      2.049687
H       5.295089     -4.663735      0.389116
