31
lumiflavin oxidized — MMFF94s
C      -3.764194     -1.819991      0.143289
C      -2.504635     -1.006781      0.027878
C      -1.263874     -1.656697      0.043655
C      -0.062213     -0.946894     -0.060565
N       1.125371     -1.700094     -0.033764
C       2.259274     -1.073692     -0.128239
C       3.543426     -1.856382     -0.102095
O       3.578176     -3.071045      0.005107
N       4.653475     -1.077039     -0.209406
C       4.678564      0.281915     -0.331518
O       5.771138      0.833889     -0.417947
N       3.511666      0.989127     -0.354916
C       2.343555      0.429869     -0.265268
N       1.154476      1.147785     -0.288866
C       1.144841      2.599579     -0.418077
C      -0.075261      0.459787     -0.185638
C      -1.325434      1.103852     -0.200577
C      -2.536084      0.391598     -0.095840
C      -3.839391      1.144584     -0.118688
H      -4.327399     -1.524559      1.034123
H      -3.546203     -2.889706      0.231410
H      -4.387865     -1.683500     -0.745796
H      -1.214787     -2.740160      0.138663
H       5.550043     -1.537737     -0.198807
H       0.673194      3.065174      0.454617
H       2.152577      3.021991     -0.490049
H       0.612638      2.906337     -1.325538
H      -1.384395      2.184714     -0.295016
H      -4.389784      0.979850      0.812988
H      -4.450436      0.820867     -0.967170
H      -3.680460      2.223358     -0.220451
