33
1,5-dihydrolumiflavin — MMFF94s
C      -3.816778      0.159894     -1.856475
C      -2.580242      0.074931     -1.004595
C      -1.320534      0.087379     -1.619034
C      -0.137257     -0.003124     -0.873473
C      -0.193974     -0.066832      0.541693
C      -1.465023     -0.089162      1.144762
C      -2.654209     -0.029923      0.393191
C      -3.978657     -0.050609      1.107941
N       1.015738     -0.071461      1.288236
C       0.937606      0.101922      2.734583
C       2.248145     -0.072967      0.627214
N       3.351937      0.232127      1.246168
C       4.550559      0.275810      0.598249
O       5.613527      0.408822      1.196329
N       4.575969      0.190463     -0.762331
C       3.518332     -0.121910     -1.558447
O       3.631221     -0.135318     -2.785190
C       2.246481     -0.506500     -0.837991
N       1.080619      0.014468     -1.545898
H      -3.568779      0.315278     -2.911895
H      -4.391405     -0.768770     -1.783103
H      -4.441081      1.002158     -1.541789
H      -1.256580      0.162119     -2.702588
H      -1.557977     -0.147765      2.225300
H      -4.613521     -0.851087      0.715056
H      -3.854958     -0.232612      2.180788
H      -4.487100      0.911321      0.988913
H       0.469715      1.059705      2.988333
H       1.922835      0.089915      3.212632
H       0.371825     -0.714860      3.196492
H       5.466905      0.357797     -1.202620
H       2.204427     -1.604213     -0.841090
H       1.112234      0.023001     -2.559359
