22
[Os(NH3)5Cl] minimal d-orbital model
Os      0.000000      0.000000      0.000000
N       2.100000      0.000000      0.000000
H       2.428824      0.000000      0.954974
H       2.428824     -0.827032     -0.477487
H       2.428824      0.827032     -0.477487
N      -2.100000      0.000000      0.000000
H      -2.428824      0.000000      0.954974
H      -2.428824      0.827032     -0.477487
H      -2.428824     -0.827032     -0.477487
N       0.000000      2.100000      0.000000
H       0.000000      2.428824      0.954974
H       0.827032      2.428824     -0.477487
H      -0.827032      2.428824     -0.477487
N       0.000000     -2.100000      0.000000
H       0.000000     -2.428824      0.954974
H      -0.827032     -2.428824     -0.477487
H       0.827032     -2.428824     -0.477487
N       0.000000      0.000000      2.100000
H       0.954974      0.000000      2.428824
H      -0.477487      0.827032      2.428824
H      -0.477487     -0.827032      2.428824
Cl      0.000000      0.000000     -2.350000
