65
② bisim_meim2
Os      0.000000      0.000000      0.000000
C      -0.753117      0.000012      4.822364
C       0.565268     -0.000028      4.390751
C       0.802737     -0.000046      3.028392
N      -0.172171      0.000000      2.091873
C      -1.467885      0.000002      2.517334
C      -2.517333      0.000002      1.467886
C      -3.879319     -0.000028      1.779460
C      -4.822363     -0.000055      0.753121
C      -4.390750     -0.000030     -0.565266
C      -3.028392     -0.000008     -0.802736
N      -2.091873     -0.000000      0.172171
C      -1.779457      0.000013      3.879319
H      -0.987019     -0.000017      5.882959
H       1.387066     -0.000037      5.097537
H       1.816718     -0.000071      2.638693
H      -4.206797     -0.000048      2.815194
H      -5.882957     -0.000078      0.987030
H      -5.097535     -0.000048     -1.387065
H      -2.638695     -0.000016     -1.816718
H      -2.815193      0.000023      4.206786
C       0.000012     -0.753117     -4.822364
C      -0.000028      0.565268     -4.390751
C      -0.000046      0.802737     -3.028392
N       0.000000     -0.172171     -2.091873
C       0.000002     -1.467885     -2.517334
C       0.000002     -2.517333     -1.467886
C      -0.000028     -3.879319     -1.779460
C      -0.000055     -4.822363     -0.753121
C      -0.000030     -4.390750      0.565266
C      -0.000008     -3.028392      0.802736
N      -0.000000     -2.091873     -0.172171
C       0.000013     -1.779457     -3.879319
H      -0.000017     -0.987019     -5.882959
H      -0.000037      1.387066     -5.097537
H      -0.000071      1.816718     -2.638693
H      -0.000048     -4.206797     -2.815194
H      -0.000078     -5.882957     -0.987030
H      -0.000048     -5.097535      1.387065
H      -0.000016     -2.638695      1.816718
H       0.000023     -2.815193     -4.206786
C       0.552263      5.607867     -0.552264
N       0.117568      4.305874     -0.117567
C      -0.828243      4.034427      0.828243
C      -0.884899      2.660888      0.884898
N       0.000000      2.100000      0.000000
C       0.589696      3.115593     -0.589695
H       0.004325      6.378741     -0.004550
H       0.352995      5.699908     -1.622949
H       1.622885      5.700020     -0.352708
H      -1.364971      4.803731      1.364972
H      -1.514917      2.046529      1.514916
H       1.353298      3.043922     -1.353297
C       5.607867     -0.676382     -0.390510
N       4.305874     -0.143991     -0.083132
C       4.034427      1.014386      0.585657
C       2.660888      1.083775      0.625718
N       2.100000      0.000000      0.000000
C       3.115593     -0.722226     -0.416977
H       6.378741     -0.005356     -0.003276
H       5.699908     -0.761017     -1.476286
H       5.700020     -1.658874      0.079344
H       4.803731      1.671741      0.965181
H       2.046529      1.855387      1.071207
H       3.043922     -1.657444     -0.956925
