56
② aqua_meim_h2o
Os      0.000000      0.000000      0.000000
C      -0.753117      0.000012      4.822364
C       0.565268     -0.000028      4.390751
C       0.802737     -0.000046      3.028392
N      -0.172171      0.000000      2.091873
C      -1.467885      0.000002      2.517334
C      -2.517333      0.000002      1.467886
C      -3.879319     -0.000028      1.779460
C      -4.822363     -0.000055      0.753121
C      -4.390750     -0.000030     -0.565266
C      -3.028392     -0.000008     -0.802736
N      -2.091873     -0.000000      0.172171
C      -1.779457      0.000013      3.879319
H      -0.987019     -0.000017      5.882959
H       1.387066     -0.000037      5.097537
H       1.816718     -0.000071      2.638693
H      -4.206797     -0.000048      2.815194
H      -5.882957     -0.000078      0.987030
H      -5.097535     -0.000048     -1.387065
H      -2.638695     -0.000016     -1.816718
H      -2.815193      0.000023      4.206786
C       0.000012     -0.753117     -4.822364
C      -0.000028      0.565268     -4.390751
C      -0.000046      0.802737     -3.028392
N       0.000000     -0.172171     -2.091873
C       0.000002     -1.467885     -2.517334
C       0.000002     -2.517333     -1.467886
C      -0.000028     -3.879319     -1.779460
C      -0.000055     -4.822363     -0.753121
C      -0.000030     -4.390750      0.565266
C      -0.000008     -3.028392      0.802736
N      -0.000000     -2.091873     -0.172171
C       0.000013     -1.779457     -3.879319
H      -0.000017     -0.987019     -5.882959
H      -0.000037      1.387066     -5.097537
H      -0.000071      1.816718     -2.638693
H      -0.000048     -4.206797     -2.815194
H      -0.000078     -5.882957     -0.987030
H      -0.000048     -5.097535      1.387065
H      -0.000016     -2.638695      1.816718
H       0.000023     -2.815193     -4.206786
C       0.781019      5.607867     -0.000000
N       0.166266      4.305874      0.000001
C      -1.171313      4.034427      0.000000
C      -1.251435      2.660888     -0.000000
N       0.000000      2.100000      0.000000
C       0.833955      3.115593      0.000000
H       0.006276      6.378741     -0.000159
H       1.397203      5.699908     -0.897993
H       1.396955      5.700020      0.898151
H      -1.930361      4.803731      0.000001
H      -2.142416      2.046529     -0.000000
H       1.913852      3.043922      0.000000
O       2.100000      0.000000      0.000000
H       2.696722     -0.763468      0.000000
H       2.696723      0.763468      0.000000
