66
cis-[Os(cf3)2(1-MeIm)Cl] programmatic octahedral
Os      0.000000      0.000000      0.000000
F      -2.157527      0.751514      6.615255
C      -1.067554     -0.000057      6.298641
F      -1.328536     -1.254622      6.756599
F      -0.051594      0.475826      7.071977
C      -0.746374      0.016447      4.829037
C       0.574885     -0.000940      4.379720
C       0.806131     -0.005499      3.017209
N      -0.174844      0.000000      2.089199
C      -1.467462      0.007574      2.516351
C      -2.516352      0.007574      1.467462
C      -3.877678      0.013340      1.775701
C      -4.829037      0.016434      0.746371
C      -6.298643     -0.000088      1.067541
F      -7.071972      0.475819      0.051587
F      -6.756597     -1.254665      1.328479
F      -6.615272      0.751448      2.157533
C      -4.379717     -0.000950     -0.574888
C      -3.017206     -0.005501     -0.806132
N      -2.089199      0.000000      0.174844
C      -1.775702      0.013344      3.877676
H       1.409357     -0.009305      5.075083
H       1.818044     -0.015503      2.620709
H      -4.199799      0.016686      2.815437
H      -5.075079     -0.009320     -1.409362
H      -2.620705     -0.015497     -1.818044
H      -2.815437      0.016687      4.199796
F       0.751514     -2.157527     -6.615255
C      -0.000057     -1.067554     -6.298641
F      -1.254622     -1.328536     -6.756599
F       0.475826     -0.051594     -7.071977
C       0.016447     -0.746374     -4.829037
C      -0.000940      0.574885     -4.379720
C      -0.005499      0.806131     -3.017209
N       0.000000     -0.174844     -2.089199
C       0.007574     -1.467462     -2.516351
C       0.007574     -2.516352     -1.467462
C       0.013340     -3.877678     -1.775701
C       0.016434     -4.829037     -0.746371
C      -0.000088     -6.298643     -1.067541
F       0.475819     -7.071972     -0.051587
F      -1.254665     -6.756597     -1.328479
F       0.751448     -6.615272     -2.157533
C      -0.000950     -4.379717      0.574888
C      -0.005501     -3.017206      0.806132
N       0.000000     -2.089199     -0.174844
C       0.013344     -1.775702     -3.877676
H      -0.009305      1.409357     -5.075083
H      -0.015503      1.818044     -2.620709
H       0.016686     -4.199799     -2.815437
H      -0.009320     -5.075079      1.409362
H      -0.015497     -2.620705      1.818044
H       0.016687     -2.815437     -4.199796
C       0.781019      5.607867     -0.000000
N       0.166266      4.305874      0.000001
C      -1.171313      4.034427      0.000000
C      -1.251435      2.660888     -0.000000
N       0.000000      2.100000      0.000000
C       0.833955      3.115593      0.000000
H       0.006276      6.378741     -0.000159
H       1.397203      5.699908     -0.897993
H       1.396955      5.700020      0.898151
H      -1.930361      4.803731      0.000001
H      -2.142416      2.046529     -0.000000
H       1.913852      3.043922      0.000000
Cl      2.380000      0.000000      0.000000
