66
cis-[Os(dcbpy)2(1-MeIm)Cl] programmatic octahedral
Os      0.000000      0.000000      0.000000
O      -2.294752      0.000000      6.574490
C      -0.987081     -0.000000      6.267372
O      -0.130724     -0.000002      7.132167
C      -0.736748     -0.000000      4.808756
C       0.584450     -0.000000      4.370406
C       0.810194     -0.000000      3.010387
N      -0.176187      0.000000      2.087856
C      -1.469025      0.000000      2.518295
C      -2.518295      0.000000      1.469025
C      -3.877187      0.000000      1.776649
C      -4.808756     -0.000000      0.736748
C      -6.267372      0.000000      0.987082
O      -7.132167      0.000001      0.130725
O      -6.574490     -0.000000      2.294752
C      -4.370406     -0.000000     -0.584450
C      -3.010387     -0.000000     -0.810194
N      -2.087856     -0.000000      0.176187
C      -1.776649      0.000000      3.877187
H      -2.312782      0.000000      7.554497
H       1.414947     -0.000001      5.068902
H       1.820225     -0.000001      2.609554
H      -4.201407      0.000001      2.813291
H      -7.554497     -0.000000      2.312783
H      -5.068902     -0.000000     -1.414947
H      -2.609554     -0.000001     -1.820225
H      -2.813291      0.000000      4.201407
O       0.000000     -2.294752     -6.574490
C      -0.000000     -0.987081     -6.267372
O      -0.000002     -0.130724     -7.132167
C      -0.000000     -0.736748     -4.808756
C      -0.000000      0.584450     -4.370406
C      -0.000000      0.810194     -3.010387
N       0.000000     -0.176187     -2.087856
C       0.000000     -1.469025     -2.518295
C       0.000000     -2.518295     -1.469025
C       0.000000     -3.877187     -1.776649
C      -0.000000     -4.808756     -0.736748
C       0.000000     -6.267372     -0.987082
O       0.000001     -7.132167     -0.130725
O      -0.000000     -6.574490     -2.294752
C      -0.000000     -4.370406      0.584450
C      -0.000000     -3.010387      0.810194
N      -0.000000     -2.087856     -0.176187
C       0.000000     -1.776649     -3.877187
H       0.000000     -2.312782     -7.554497
H      -0.000001      1.414947     -5.068902
H      -0.000001      1.820225     -2.609554
H       0.000001     -4.201407     -2.813291
H      -0.000000     -7.554497     -2.312783
H      -0.000000     -5.068902      1.414947
H      -0.000001     -2.609554      1.820225
H       0.000000     -2.813291     -4.201407
C       0.781019      5.607867     -0.000000
N       0.166266      4.305874      0.000001
C      -1.171313      4.034427      0.000000
C      -1.251435      2.660888     -0.000000
N       0.000000      2.100000      0.000000
C       0.833955      3.115593      0.000000
H       0.006276      6.378741     -0.000159
H       1.397203      5.699908     -0.897993
H       1.396955      5.700020      0.898151
H      -1.930361      4.803731      0.000001
H      -2.142416      2.046529     -0.000000
H       1.913852      3.043922      0.000000
Cl      2.380000      0.000000      0.000000
