66
cis-[Os(4,4'-dimethyl-bpy)2(1-MeIm)Cl] programmatic octahedral, chelates closed (C-min)
Os      0.000000      0.000000      0.000000
C      -0.909764      0.036970      6.286686
C      -0.663250     -0.001979      4.808816
C       0.634245      0.012669      4.303733
C       0.804124      0.008519      2.931587
N      -0.215280     -0.000000      2.048764
C      -1.484989      0.000009      2.530205
C      -2.530207      0.000009      1.484992
C      -3.905318     -0.004564      1.734149
C      -4.808816      0.001970      0.663254
C      -6.286684     -0.036990      0.909781
C      -4.303735     -0.012693     -0.634241
C      -2.931588     -0.008536     -0.804122
N      -2.048764      0.000000      0.215280
C      -1.734145      0.004580      3.905317
H      -0.088207     -0.437729      6.833470
H      -1.826069     -0.505031      6.543236
H      -1.005037      1.073892      6.623195
H       1.499228      0.026689      4.957879
H       1.795298      0.014780      2.487817
H      -4.291098     -0.013489      2.746792
H      -6.543253      0.505250      1.825939
H      -6.833503      0.437448      0.088097
H      -6.623137     -1.073905      1.005337
H      -4.957881     -0.026730     -1.499223
H      -2.487820     -0.014808     -1.795297
H      -2.746788      0.013516      4.291098
C       0.036970     -0.909764     -6.286686
C      -0.001979     -0.663250     -4.808816
C       0.012669      0.634245     -4.303733
C       0.008519      0.804124     -2.931587
N      -0.000000     -0.215280     -2.048764
C       0.000009     -1.484989     -2.530205
C       0.000009     -2.530207     -1.484992
C      -0.004564     -3.905318     -1.734149
C       0.001970     -4.808816     -0.663254
C      -0.036990     -6.286684     -0.909781
C      -0.012693     -4.303735      0.634241
C      -0.008536     -2.931588      0.804122
N       0.000000     -2.048764     -0.215280
C       0.004580     -1.734145     -3.905317
H      -0.437729     -0.088207     -6.833470
H      -0.505031     -1.826069     -6.543236
H       1.073892     -1.005037     -6.623195
H       0.026689      1.499228     -4.957879
H       0.014780      1.795298     -2.487817
H      -0.013489     -4.291098     -2.746792
H       0.505250     -6.543253     -1.825939
H       0.437448     -6.833503     -0.088097
H      -1.073905     -6.623137     -1.005337
H      -0.026730     -4.957881      1.499223
H      -0.014808     -2.487820      1.795297
H       0.013516     -2.746788     -4.291098
C       0.781019      5.607867     -0.000000
N       0.166266      4.305874      0.000001
C      -1.171313      4.034427      0.000000
C      -1.251435      2.660888     -0.000000
N       0.000000      2.100000      0.000000
C       0.833955      3.115593      0.000000
H       0.006276      6.378741     -0.000159
H       1.397203      5.699908     -0.897993
H       1.396955      5.700020      0.898151
H      -1.930361      4.803731      0.000001
H      -2.142416      2.046529     -0.000000
H       1.913852      3.043922      0.000000
Cl      2.380000      0.000000      0.000000
