66
cis-[Os(4,4'-dimethyl-bpy)2(1-MeIm)Cl] programmatic octahedral (OS-RECOMPUTE)
Os      0.000000      0.000000      0.000000
C      -1.079045      0.033095      6.297327
C      -0.756682     -0.004205      4.834666
C       0.563157      0.011253      4.391861
C       0.800390      0.008000      3.028518
N      -0.172569     -0.000000      2.091475
C      -1.467251      0.000001      2.517129
C      -2.517130      0.000001      1.467251
C      -3.880110     -0.002798      1.779716
C      -4.834666      0.004206      0.756682
C      -6.297327     -0.033097      1.079046
C      -4.391861     -0.011253     -0.563158
C      -3.028518     -0.008000     -0.800390
N      -2.091475     -0.000000      0.172569
C      -1.779716      0.002801      3.880110
H      -0.287130     -0.443302      6.884839
H      -2.007976     -0.508069      6.505771
H      -1.190232      1.069638      6.630116
H       1.394224      0.024905      5.088787
H       1.814734      0.014592      2.639799
H      -4.195185     -0.009758      2.820090
H      -6.505774      0.508085      2.007966
H      -6.884844      0.443278      0.287119
H      -6.630107     -1.069641      1.190255
H      -5.088787     -0.024905     -1.394224
H      -2.639798     -0.014594     -1.814734
H      -2.820090      0.009762      4.195185
C       0.033095     -1.079045     -6.297327
C      -0.004205     -0.756682     -4.834666
C       0.011253      0.563157     -4.391861
C       0.008000      0.800390     -3.028518
N      -0.000000     -0.172569     -2.091475
C       0.000001     -1.467251     -2.517129
C       0.000001     -2.517130     -1.467251
C      -0.002798     -3.880110     -1.779716
C       0.004206     -4.834666     -0.756682
C      -0.033097     -6.297327     -1.079046
C      -0.011253     -4.391861      0.563158
C      -0.008000     -3.028518      0.800390
N      -0.000000     -2.091475     -0.172569
C       0.002801     -1.779716     -3.880110
H      -0.443302     -0.287130     -6.884839
H      -0.508069     -2.007976     -6.505771
H       1.069638     -1.190232     -6.630116
H       0.024905      1.394224     -5.088787
H       0.014592      1.814734     -2.639799
H      -0.009758     -4.195185     -2.820090
H       0.508085     -6.505774     -2.007966
H       0.443278     -6.884844     -0.287119
H      -1.069641     -6.630107     -1.190255
H      -0.024905     -5.088787      1.394224
H      -0.014594     -2.639798      1.814734
H       0.009762     -2.820090     -4.195185
C       0.781019      5.607867     -0.000000
N       0.166266      4.305874      0.000001
C      -1.171313      4.034427      0.000000
C      -1.251435      2.660888     -0.000000
N       0.000000      2.100000      0.000000
C       0.833955      3.115593      0.000000
H       0.006276      6.378741     -0.000159
H       1.397203      5.699908     -0.897993
H       1.396955      5.700020      0.898151
H      -1.930361      4.803731      0.000001
H      -2.142416      2.046529     -0.000000
H       1.913852      3.043922      0.000000
Cl      2.380000      0.000000      0.000000
