19
② aquo_n6_innershell
Os      0.000000      0.000000      0.000000
O       2.100000      0.000000      0.000000
H       2.685882      0.756950      0.000000
H       2.685882     -0.756950      0.000000
O      -2.100000     -0.000000     -0.000000
H      -2.685882      0.756950      0.000000
H      -2.685882     -0.756950     -0.000000
O       0.000000      2.100000      0.000000
H       0.000000      2.685882      0.756950
H       0.000000      2.685882     -0.756950
O      -0.000000     -2.100000     -0.000000
H       0.000000     -2.685882      0.756950
H      -0.000000     -2.685882     -0.756950
O       0.000000      0.000000      2.100000
H       0.756950      0.000000      2.685882
H      -0.756950      0.000000      2.685882
O      -0.000000     -0.000000     -2.100000
H       0.756950      0.000000     -2.685882
H      -0.756950     -0.000000     -2.685882
