55
② aquo_n18_twoshell
Os      0.000000      0.000000      0.000000
O       2.100000      0.000000      0.000000
H       2.685882      0.756950      0.000000
H       2.685882     -0.756950      0.000000
O      -2.100000     -0.000000     -0.000000
H      -2.685882      0.756950      0.000000
H      -2.685882     -0.756950     -0.000000
O       0.000000      2.100000      0.000000
H       0.000000      2.685882      0.756950
H       0.000000      2.685882     -0.756950
O      -0.000000     -2.100000     -0.000000
H       0.000000     -2.685882      0.756950
H      -0.000000     -2.685882     -0.756950
O       0.000000      0.000000      2.100000
H       0.756950      0.000000      2.685882
H      -0.756950      0.000000      2.685882
O      -0.000000     -0.000000     -2.100000
H       0.756950      0.000000     -2.685882
H      -0.756950     -0.000000     -2.685882
O       3.818229      2.219924      0.000000
H       4.176835      2.683237      0.756950
H       4.176835      2.683237     -0.756950
O       3.818229     -2.219924      0.000000
H       4.176835     -2.683237      0.756950
H       4.176835     -2.683237     -0.756950
O      -3.818229      2.219924      0.000000
H      -4.176835      2.683237      0.756950
H      -4.176835      2.683237     -0.756950
O      -3.818229     -2.219924      0.000000
H      -4.176835     -2.683237      0.756950
H      -4.176835     -2.683237     -0.756950
O       0.000000      3.818229      2.219924
H       0.000000      3.578242      3.146551
H       0.000000      4.775429      2.219924
O       0.000000      3.818229     -2.219924
H       0.000000      4.775429     -2.219924
H       0.000000      3.578242     -3.146551
O       0.000000     -3.818229      2.219924
H       0.000000     -3.578242      3.146551
H       0.000000     -4.775429      2.219924
O       0.000000     -3.818229     -2.219924
H       0.000000     -4.775429     -2.219924
H       0.000000     -3.578242     -3.146551
O       2.219924      0.000000      3.818229
H       2.219924      0.000000      4.775429
H       3.146551      0.000000      3.578242
O      -2.219924      0.000000      3.818229
H      -2.219924      0.000000      4.775429
H      -3.146551      0.000000      3.578242
O       2.219924      0.000000     -3.818229
H       3.146551      0.000000     -3.578242
H       2.219924      0.000000     -4.775429
O      -2.219924      0.000000     -3.818229
H      -3.146551      0.000000     -3.578242
H      -2.219924      0.000000     -4.775429
