62
cis-[Os(no2)2(1-MeIm)Cl] programmatic octahedral
Os      0.000000      0.000000      0.000000
O      -2.099412      0.000064      6.598238
N      -0.916841      0.000057      6.229041
O       0.059683      0.000062      6.990881
C      -0.656585      0.000039      4.786230
C       0.657516      0.000027      4.330002
C       0.838227      0.000009      2.967384
N      -0.181255     -0.000000      2.082789
C      -1.469484      0.000009      2.525908
C      -2.525909     -0.000008      1.469487
C      -3.891562     -0.000029      1.735305
C      -4.786227     -0.000040      0.656596
N      -6.229038     -0.000058      0.916854
O      -6.598237     -0.000057      2.099424
O      -6.990876     -0.000071     -0.059671
C      -4.329999     -0.000026     -0.657506
C      -2.967383     -0.000007     -0.838227
N      -2.082789      0.000000      0.181255
C      -1.735296      0.000031      3.891562
H       1.513073      0.000040      4.996679
H       1.831589      0.000006      2.526322
H      -4.270055     -0.000032      2.751040
H      -4.996676     -0.000041     -1.513061
H      -2.526330     -0.000006     -1.831593
H      -2.751032      0.000031      4.270046
O       0.000064     -2.099412     -6.598238
N       0.000057     -0.916841     -6.229041
O       0.000062      0.059683     -6.990881
C       0.000039     -0.656585     -4.786230
C       0.000027      0.657516     -4.330002
C       0.000009      0.838227     -2.967384
N      -0.000000     -0.181255     -2.082789
C       0.000009     -1.469484     -2.525908
C      -0.000008     -2.525909     -1.469487
C      -0.000029     -3.891562     -1.735305
C      -0.000040     -4.786227     -0.656596
N      -0.000058     -6.229038     -0.916854
O      -0.000057     -6.598237     -2.099424
O      -0.000071     -6.990876      0.059671
C      -0.000026     -4.329999      0.657506
C      -0.000007     -2.967383      0.838227
N       0.000000     -2.082789     -0.181255
C       0.000031     -1.735296     -3.891562
H       0.000040      1.513073     -4.996679
H       0.000006      1.831589     -2.526322
H      -0.000032     -4.270055     -2.751040
H      -0.000041     -4.996676      1.513061
H      -0.000006     -2.526330      1.831593
H       0.000031     -2.751032     -4.270046
C       0.781019      5.607867     -0.000000
N       0.166266      4.305874      0.000001
C      -1.171313      4.034427      0.000000
C      -1.251435      2.660888     -0.000000
N       0.000000      2.100000      0.000000
C       0.833955      3.115593      0.000000
H       0.006276      6.378741     -0.000159
H       1.397203      5.699908     -0.897993
H       1.396955      5.700020      0.898151
H      -1.930361      4.803731      0.000001
H      -2.142416      2.046529     -0.000000
H       1.913852      3.043922      0.000000
Cl      2.380000      0.000000      0.000000
