62
cis-[Os(nh2)2(1-MeIm)Cl] programmatic octahedral
Os      0.000000      0.000000      0.000000
N      -1.059378     -0.012532      6.183295
C      -0.763510      0.011299      4.831956
C       0.552888     -0.005586      4.391987
C       0.795672     -0.006926      3.030091
N      -0.173293      0.000000      2.090751
C      -1.467052      0.003224      2.516725
C      -2.516725      0.003224      1.467052
C      -3.878999      0.004244      1.780641
C      -4.831956      0.011309      0.763511
N      -6.183295     -0.012553      1.059380
C      -4.391988     -0.005572     -0.552888
C      -3.030091     -0.006912     -0.795673
N      -2.090751     -0.000000      0.173293
C      -1.780641      0.004255      3.878999
H      -2.019991      0.045628      6.494934
H      -0.326630      0.046879      6.876365
H       1.381422     -0.017395      5.089981
H       1.811573     -0.016034      2.646073
H      -4.191671      0.000712      2.820263
H      -6.494931      0.045686      2.019990
H      -6.876362      0.046914      0.326633
H      -5.089981     -0.017380     -1.381423
H      -2.646073     -0.016016     -1.811574
H      -2.820263      0.000737      4.191671
N      -0.012532     -1.059378     -6.183295
C       0.011299     -0.763510     -4.831956
C      -0.005586      0.552888     -4.391987
C      -0.006926      0.795672     -3.030091
N       0.000000     -0.173293     -2.090751
C       0.003224     -1.467052     -2.516725
C       0.003224     -2.516725     -1.467052
C       0.004244     -3.878999     -1.780641
C       0.011309     -4.831956     -0.763511
N      -0.012553     -6.183295     -1.059380
C      -0.005572     -4.391988      0.552888
C      -0.006912     -3.030091      0.795673
N      -0.000000     -2.090751     -0.173293
C       0.004255     -1.780641     -3.878999
H       0.045628     -2.019991     -6.494934
H       0.046879     -0.326630     -6.876365
H      -0.017395      1.381422     -5.089981
H      -0.016034      1.811573     -2.646073
H       0.000712     -4.191671     -2.820263
H       0.045686     -6.494931     -2.019990
H       0.046914     -6.876362     -0.326633
H      -0.017380     -5.089981      1.381423
H      -0.016016     -2.646073      1.811574
H       0.000737     -2.820263     -4.191671
C       0.781019      5.607867     -0.000000
N       0.166266      4.305874      0.000001
C      -1.171313      4.034427      0.000000
C      -1.251435      2.660888     -0.000000
N       0.000000      2.100000      0.000000
C       0.833955      3.115593      0.000000
H       0.006276      6.378741     -0.000159
H       1.397203      5.699908     -0.897993
H       1.396955      5.700020      0.898151
H      -1.930361      4.803731      0.000001
H      -2.142416      2.046529     -0.000000
H       1.913852      3.043922      0.000000
Cl      2.380000      0.000000      0.000000
