86
cis-[Os(nme2)2(1-MeIm)Cl] programmatic octahedral
Os      0.000000      0.000000      0.000000
C      -2.465400      0.000294      6.690163
N      -1.082055     -0.000002      6.228068
C      -0.029767     -0.000637      7.235825
C      -0.781990     -0.000023      4.869161
C       0.533501     -0.000027      4.398367
C       0.784303     -0.000013      3.034496
N      -0.174077     -0.000000      2.089967
C      -1.464130     -0.000002      2.515220
C      -2.515216     -0.000002      1.464131
C      -3.881477     -0.000016      1.779441
C      -4.869163     -0.000031      0.782001
N      -6.228066     -0.000006      1.082075
C      -7.235833     -0.000743      0.029796
C      -6.690151      0.000395      2.465424
C      -4.398375     -0.000025     -0.533492
C      -3.034504     -0.000006     -0.784299
N      -2.089967     -0.000000      0.174077
C      -1.779435     -0.000022      3.881480
H      -2.993167      0.894598      6.340867
H      -2.993310     -0.894169      6.341495
H      -2.531518      0.000726      7.783601
H       0.596805     -0.894684      7.144352
H      -0.435967     -0.000810      8.253128
H       0.597402      0.893042      7.144865
H       1.382740     -0.000005      5.070459
H       1.803482      0.000023      2.659075
H      -4.156813     -0.000027      2.828788
H      -8.253132     -0.000816      0.436009
H      -7.144862      0.892859     -0.597482
H      -7.144391     -0.894873     -0.596658
H      -6.340802      0.894708      2.993141
H      -7.783587      0.000895      2.531550
H      -6.341534     -0.894058      2.993386
H      -5.070474     -0.000004     -1.382727
H      -2.659091      0.000011     -1.803482
H      -2.828781     -0.000087      4.156821
C       0.000294     -2.465400     -6.690163
N      -0.000002     -1.082055     -6.228068
C      -0.000637     -0.029767     -7.235825
C      -0.000023     -0.781990     -4.869161
C      -0.000027      0.533501     -4.398367
C      -0.000013      0.784303     -3.034496
N      -0.000000     -0.174077     -2.089967
C      -0.000002     -1.464130     -2.515220
C      -0.000002     -2.515216     -1.464131
C      -0.000016     -3.881477     -1.779441
C      -0.000031     -4.869163     -0.782001
N      -0.000006     -6.228066     -1.082075
C      -0.000743     -7.235833     -0.029796
C       0.000395     -6.690151     -2.465424
C      -0.000025     -4.398375      0.533492
C      -0.000006     -3.034504      0.784299
N      -0.000000     -2.089967     -0.174077
C      -0.000022     -1.779435     -3.881480
H       0.894598     -2.993167     -6.340867
H      -0.894169     -2.993310     -6.341495
H       0.000726     -2.531518     -7.783601
H      -0.894684      0.596805     -7.144352
H      -0.000810     -0.435967     -8.253128
H       0.893042      0.597402     -7.144865
H      -0.000005      1.382740     -5.070459
H       0.000023      1.803482     -2.659075
H      -0.000027     -4.156813     -2.828788
H      -0.000816     -8.253132     -0.436009
H       0.892859     -7.144862      0.597482
H      -0.894873     -7.144391      0.596658
H       0.894708     -6.340802     -2.993141
H       0.000895     -7.783587     -2.531550
H      -0.894058     -6.341534     -2.993386
H      -0.000004     -5.070474      1.382727
H       0.000011     -2.659091      1.803482
H      -0.000087     -2.828781     -4.156821
C       0.781019      5.607867     -0.000000
N       0.166266      4.305874      0.000001
C      -1.171313      4.034427      0.000000
C      -1.251435      2.660888     -0.000000
N       0.000000      2.100000      0.000000
C       0.833955      3.115593      0.000000
H       0.006276      6.378741     -0.000159
H       1.397203      5.699908     -0.897993
H       1.396955      5.700020      0.898151
H      -1.930361      4.803731      0.000001
H      -2.142416      2.046529     -0.000000
H       1.913852      3.043922      0.000000
Cl      2.380000      0.000000      0.000000
