70
cis-[Os(ome)2(1-MeIm)Cl] programmatic octahedral
Os      0.000000      0.000000      0.000000
C      -2.242381      0.000001      6.676409
O      -0.908619     -0.000012      6.180493
C      -0.756313     -0.000009      4.820974
C       0.561346     -0.000010      4.382282
C       0.800686     -0.000005      3.022592
N      -0.174349      0.000000      2.089695
C      -1.467154     -0.000002      2.517899
C      -2.516783     -0.000002      1.468074
C      -3.877041     -0.000002      1.776573
C      -4.822660      0.000002      0.751976
O      -6.124811      0.000002      1.170454
C      -7.127337      0.000008      0.161829
C      -4.389089      0.000006     -0.565712
C      -3.025445      0.000005     -0.799015
N      -2.089695     -0.000000      0.174349
C      -1.782386     -0.000006      3.879992
H      -2.192084      0.000007      7.769515
H      -2.778159      0.903708      6.367640
H      -2.778173     -0.903699      6.367649
H       1.383594     -0.000014      5.088723
H       1.814818     -0.000005      2.633802
H      -4.205831     -0.000004      2.811974
H      -7.067007     -0.903295     -0.454169
H      -8.102136      0.000014      0.658946
H      -7.066997      0.903309     -0.454170
H      -5.066352      0.000010     -1.409276
H      -2.634665      0.000008     -1.812883
H      -2.825170     -0.000007      4.174622
C       0.000001     -2.242381     -6.676409
O      -0.000012     -0.908619     -6.180493
C      -0.000009     -0.756313     -4.820974
C      -0.000010      0.561346     -4.382282
C      -0.000005      0.800686     -3.022592
N       0.000000     -0.174349     -2.089695
C      -0.000002     -1.467154     -2.517899
C      -0.000002     -2.516783     -1.468074
C      -0.000002     -3.877041     -1.776573
C       0.000002     -4.822660     -0.751976
O       0.000002     -6.124811     -1.170454
C       0.000008     -7.127337     -0.161829
C       0.000006     -4.389089      0.565712
C       0.000005     -3.025445      0.799015
N      -0.000000     -2.089695     -0.174349
C      -0.000006     -1.782386     -3.879992
H       0.000007     -2.192084     -7.769515
H       0.903708     -2.778159     -6.367640
H      -0.903699     -2.778173     -6.367649
H      -0.000014      1.383594     -5.088723
H      -0.000005      1.814818     -2.633802
H      -0.000004     -4.205831     -2.811974
H      -0.903295     -7.067007      0.454169
H       0.000014     -8.102136     -0.658946
H       0.903309     -7.066997      0.454170
H       0.000010     -5.066352      1.409276
H       0.000008     -2.634665      1.812883
H      -0.000007     -2.825170     -4.174622
C       0.781019      5.607867     -0.000000
N       0.166266      4.305874      0.000001
C      -1.171313      4.034427      0.000000
C      -1.251435      2.660888     -0.000000
N       0.000000      2.100000      0.000000
C       0.833955      3.115593      0.000000
H       0.006276      6.378741     -0.000159
H       1.397203      5.699908     -0.897993
H       1.396955      5.700020      0.898151
H      -1.930361      4.803731      0.000001
H      -2.142416      2.046529     -0.000000
H       1.913852      3.043922      0.000000
Cl      2.380000      0.000000      0.000000
