78
cis-[Os(so2cf3)2(1-MeIm)Cl] programmatic octahedral
Os      0.000000      0.000000      0.000000
O       0.126566      0.414378      7.205565
S      -1.095983     -0.009438      6.537470
O      -2.304415      0.787401      6.686178
C      -1.428483     -1.768465      6.870706
F      -1.708838     -2.010824      8.181768
F      -0.365897     -2.561582      6.547602
F      -2.487667     -2.240535      6.152510
C      -0.727792     -0.023403      4.795268
C       0.594415      0.002310      4.366790
C       0.814024      0.011675      3.005692
N      -0.177419      0.000000      2.086624
C      -1.469738     -0.000209      2.517566
C      -2.517570     -0.000209      1.469734
C      -3.875445      0.006982      1.776021
C      -4.795279      0.022618      0.727775
S      -6.537460      0.008136      1.096024
O      -7.205713     -0.413058     -0.127343
O      -6.686131     -0.791197      2.302799
C      -6.870535      1.766508      1.432139
F      -8.181649      2.008450      1.712625
F      -6.547021      2.561824      0.371336
F      -6.152588      2.236236      2.492531
C      -4.366786     -0.002639     -0.594437
C      -3.005682     -0.011644     -0.814033
N      -2.086624     -0.000000      0.177419
C      -1.776034     -0.007812      3.875435
H       1.431153      0.022747      5.057679
H       1.822146      0.031851      2.599105
H      -4.202982     -0.007473      2.812861
H      -5.057656     -0.023020     -1.431194
H      -2.599081     -0.031485     -1.822157
H      -2.812879      0.006280      4.202971
O       0.414378      0.126566     -7.205565
S      -0.009438     -1.095983     -6.537470
O       0.787401     -2.304415     -6.686178
C      -1.768465     -1.428483     -6.870706
F      -2.010824     -1.708838     -8.181768
F      -2.561582     -0.365897     -6.547602
F      -2.240535     -2.487667     -6.152510
C      -0.023403     -0.727792     -4.795268
C       0.002310      0.594415     -4.366790
C       0.011675      0.814024     -3.005692
N       0.000000     -0.177419     -2.086624
C      -0.000209     -1.469738     -2.517566
C      -0.000209     -2.517570     -1.469734
C       0.006982     -3.875445     -1.776021
C       0.022618     -4.795279     -0.727775
S       0.008136     -6.537460     -1.096024
O      -0.413058     -7.205713      0.127343
O      -0.791197     -6.686131     -2.302799
C       1.766508     -6.870535     -1.432139
F       2.008450     -8.181649     -1.712625
F       2.561824     -6.547021     -0.371336
F       2.236236     -6.152588     -2.492531
C      -0.002639     -4.366786      0.594437
C      -0.011644     -3.005682      0.814033
N      -0.000000     -2.086624     -0.177419
C      -0.007812     -1.776034     -3.875435
H       0.022747      1.431153     -5.057679
H       0.031851      1.822146     -2.599105
H      -0.007473     -4.202982     -2.812861
H      -0.023020     -5.057656      1.431194
H      -0.031485     -2.599081      1.822157
H       0.006280     -2.812879     -4.202971
C       0.781019      5.607867     -0.000000
N       0.166266      4.305874      0.000001
C      -1.171313      4.034427      0.000000
C      -1.251435      2.660888     -0.000000
N       0.000000      2.100000      0.000000
C       0.833955      3.115593      0.000000
H       0.006276      6.378741     -0.000159
H       1.397203      5.699908     -0.897993
H       1.396955      5.700020      0.898151
H      -1.930361      4.803731      0.000001
H      -2.142416      2.046529     -0.000000
H       1.913852      3.043922      0.000000
Cl      2.380000      0.000000      0.000000
